(set-logic QF_S)
(declare-fun T_12 () Bool)
(declare-fun T_13 () Bool)
(declare-fun T_SELECT_4 () Bool)
(declare-fun T_SELECT_5 () Bool)
(declare-fun T_c () Bool)
(declare-fun T_e () Bool)
(declare-fun T_f () Bool)
(declare-fun I0_23 () Int)
(declare-fun I1_23 () Int)
(declare-fun I2_23 () Int)
(declare-fun PCTEMP_LHS_4 () Int)
(declare-fun PCTEMP_LHS_5 () Int)
(declare-fun T_10 () Int)
(declare-fun NEW_DGNode_103 () String)
(declare-fun NEW_DGNode_107 () String)
(declare-fun NEW_DGNode_111 () String)
(declare-fun NEW_DGNode_115 () String)
(declare-fun NEW_DGNode_95 () String)
(declare-fun NEW_DGNode_99 () String)
(declare-fun PCTEMP_LHS_6 () String)
(declare-fun T_2c () String)
(declare-fun T_2d () String)
(declare-fun T_2e () String)
(declare-fun T_2f () String)
(declare-fun T_30 () String)
(declare-fun T_31 () String)
(assert (= T_31 (str.++ T_30 NEW_DGNode_115)))
(assert (= T_30 (str.++ T_2f NEW_DGNode_111)))
(assert (= T_2f (str.++ T_2e NEW_DGNode_107)))
(assert (= T_2e (str.++ T_2d NEW_DGNode_103)))
(assert (= T_2d (str.++ T_2c NEW_DGNode_99)))
(assert (= T_2c (str.++ NEW_DGNode_95 PCTEMP_LHS_6)))
(assert (= NEW_DGNode_95 "__utmb="))
(assert (= PCTEMP_LHS_6 "-"))
(assert (= NEW_DGNode_99 ";"))
(assert (= NEW_DGNode_103 "/"))
(assert (= NEW_DGNode_107 ";"))
(assert (= NEW_DGNode_111 ""))
(assert (= NEW_DGNode_115 ""))
(assert (= T_SELECT_5 (not (= PCTEMP_LHS_5 (- 1)))))
(assert T_f)
(assert (= T_f (not T_e)))
(assert (= T_e (< PCTEMP_LHS_5 0)))
(assert (= T_SELECT_4 (not (= PCTEMP_LHS_4 (- 1)))))
(assert T_c)
(assert (= T_c (< (- 1) PCTEMP_LHS_4)))
(assert (= T_10 (+ PCTEMP_LHS_4 7)))
(assert (>= T_10 0))
(assert (>= PCTEMP_LHS_5 T_10))
(assert (= I2_23 I1_23))
(assert (<= PCTEMP_LHS_5 I1_23))
(assert (= I0_23 (- PCTEMP_LHS_5 T_10)))
(assert (= I0_23 (str.len PCTEMP_LHS_6))) ; len 0
(assert T_12)
(assert T_13)
(assert (= T_13 (not T_12)))
(check-sat)
